Cubic BN
1.0
3.57 0.0 0.0
0.0 3.57 0.0
0.0 0.0 3.57
B N
1 1
Direct
0.00 0.00 0.00
0.25 0.25 0.25